Code 1834
Dimension, Median
   128       16
 Facility, Client, Transportation Cost
     1        1           1
     1        2           0
     1        3           1
     1        5           4
     1        9           1
     1       17           3
     1       33           3
     1       65           4
     2        1           1
     2        2           3
     2        4           2
     2        6           0
     2       10           3
     2       18           4
     2       34           4
     2       66           0
     3        1           3
     3        3           2
     3        4           2
     3        7           1
     3       11           2
     3       19           3
     3       35           2
     3       67           3
     4        2           1
     4        3           0
     4        4           1
     4        8           0
     4       12           1
     4       20           3
     4       36           4
     4       68           2
     5        1           4
     5        5           1
     5        6           1
     5        7           2
     5       13           3
     5       21           3
     5       37           2
     5       69           0
     6        2           3
     6        5           1
     6        6           1
     6        8           3
     6       14           0
     6       22           1
     6       38           4
     6       70           2
     7        3           4
     7        5           3
     7        7           4
     7        8           3
     7       15           4
     7       23           2
     7       39           0
     7       71           0
     8        4           0
     8        6           4
     8        7           0
     8        8           4
     8       16           3
     8       24           1
     8       40           3
     8       72           4
     9        1           2
     9        9           4
     9       10           4
     9       11           3
     9       13           3
     9       25           4
     9       41           4
     9       73           1
    10        2           2
    10        9           0
    10       10           4
    10       12           4
    10       14           0
    10       26           0
    10       42           0
    10       74           4
    11        3           0
    11        9           0
    11       11           0
    11       12           3
    11       15           2
    11       27           2
    11       43           2
    11       75           2
    12        4           1
    12       10           0
    12       11           4
    12       12           3
    12       16           0
    12       28           4
    12       44           1
    12       76           0
    13        5           2
    13        9           3
    13       13           2
    13       14           2
    13       15           1
    13       29           0
    13       45           3
    13       77           2
    14        6           4
    14       10           3
    14       13           1
    14       14           0
    14       16           4
    14       30           1
    14       46           1
    14       78           0
    15        7           4
    15       11           0
    15       13           4
    15       15           1
    15       16           4
    15       31           0
    15       47           3
    15       79           0
    16        8           4
    16       12           4
    16       14           2
    16       15           4
    16       16           3
    16       32           2
    16       48           3
    16       80           4
    17        1           0
    17       17           0
    17       18           1
    17       19           2
    17       21           4
    17       25           4
    17       49           3
    17       81           0
    18        2           1
    18       17           2
    18       18           2
    18       20           2
    18       22           4
    18       26           0
    18       50           1
    18       82           3
    19        3           3
    19       17           3
    19       19           3
    19       20           4
    19       23           1
    19       27           3
    19       51           3
    19       83           3
    20        4           2
    20       18           4
    20       19           0
    20       20           2
    20       24           4
    20       28           4
    20       52           1
    20       84           0
    21        5           4
    21       17           3
    21       21           4
    21       22           1
    21       23           2
    21       29           2
    21       53           3
    21       85           1
    22        6           0
    22       18           3
    22       21           2
    22       22           2
    22       24           0
    22       30           3
    22       54           3
    22       86           3
    23        7           3
    23       19           1
    23       21           1
    23       23           3
    23       24           0
    23       31           1
    23       55           3
    23       87           4
    24        8           1
    24       20           2
    24       22           2
    24       23           4
    24       24           0
    24       32           4
    24       56           4
    24       88           3
    25        9           3
    25       17           3
    25       25           1
    25       26           1
    25       27           0
    25       29           2
    25       57           1
    25       89           3
    26       10           0
    26       18           0
    26       25           3
    26       26           3
    26       28           1
    26       30           1
    26       58           0
    26       90           3
    27       11           3
    27       19           1
    27       25           1
    27       27           0
    27       28           3
    27       31           2
    27       59           4
    27       91           1
    28       12           2
    28       20           1
    28       26           1
    28       27           0
    28       28           1
    28       32           3
    28       60           2
    28       92           3
    29       13           1
    29       21           0
    29       25           3
    29       29           0
    29       30           3
    29       31           0
    29       61           3
    29       93           0
    30       14           1
    30       22           4
    30       26           0
    30       29           2
    30       30           0
    30       32           2
    30       62           2
    30       94           1
    31       15           0
    31       23           3
    31       27           3
    31       29           2
    31       31           4
    31       32           4
    31       63           1
    31       95           1
    32       16           0
    32       24           2
    32       28           3
    32       30           3
    32       31           3
    32       32           2
    32       64           3
    32       96           1
    33        1           4
    33       33           4
    33       34           0
    33       35           3
    33       37           1
    33       41           3
    33       49           0
    33       97           0
    34        2           3
    34       33           3
    34       34           1
    34       36           0
    34       38           0
    34       42           4
    34       50           1
    34       98           1
    35        3           1
    35       33           0
    35       35           1
    35       36           0
    35       39           2
    35       43           4
    35       51           4
    35       99           3
    36        4           1
    36       34           4
    36       35           4
    36       36           1
    36       40           3
    36       44           2
    36       52           4
    36      100           2
    37        5           4
    37       33           1
    37       37           3
    37       38           1
    37       39           3
    37       45           0
    37       53           2
    37      101           3
    38        6           3
    38       34           4
    38       37           2
    38       38           3
    38       40           0
    38       46           0
    38       54           4
    38      102           3
    39        7           1
    39       35           2
    39       37           1
    39       39           4
    39       40           0
    39       47           2
    39       55           0
    39      103           3
    40        8           1
    40       36           3
    40       38           2
    40       39           4
    40       40           3
    40       48           4
    40       56           2
    40      104           2
    41        9           3
    41       33           1
    41       41           4
    41       42           0
    41       43           4
    41       45           0
    41       57           0
    41      105           0
    42       10           2
    42       34           1
    42       41           1
    42       42           2
    42       44           0
    42       46           2
    42       58           2
    42      106           2
    43       11           2
    43       35           3
    43       41           2
    43       43           1
    43       44           0
    43       47           1
    43       59           3
    43      107           0
    44       12           4
    44       36           4
    44       42           0
    44       43           0
    44       44           2
    44       48           3
    44       60           4
    44      108           0
    45       13           0
    45       37           0
    45       41           0
    45       45           0
    45       46           3
    45       47           4
    45       61           0
    45      109           1
    46       14           2
    46       38           0
    46       42           0
    46       45           2
    46       46           1
    46       48           3
    46       62           1
    46      110           3
    47       15           2
    47       39           2
    47       43           1
    47       45           2
    47       47           1
    47       48           1
    47       63           3
    47      111           0
    48       16           0
    48       40           2
    48       44           0
    48       46           0
    48       47           2
    48       48           2
    48       64           3
    48      112           4
    49       17           0
    49       33           2
    49       49           2
    49       50           4
    49       51           4
    49       53           4
    49       57           1
    49      113           3
    50       18           4
    50       34           1
    50       49           4
    50       50           2
    50       52           2
    50       54           3
    50       58           0
    50      114           0
    51       19           0
    51       35           3
    51       49           2
    51       51           0
    51       52           4
    51       55           2
    51       59           3
    51      115           2
    52       20           3
    52       36           1
    52       50           1
    52       51           4
    52       52           4
    52       56           4
    52       60           4
    52      116           0
    53       21           3
    53       37           0
    53       49           3
    53       53           1
    53       54           0
    53       55           1
    53       61           3
    53      117           0
    54       22           1
    54       38           4
    54       50           0
    54       53           1
    54       54           3
    54       56           1
    54       62           3
    54      118           2
    55       23           1
    55       39           3
    55       51           0
    55       53           4
    55       55           4
    55       56           1
    55       63           1
    55      119           0
    56       24           4
    56       40           4
    56       52           2
    56       54           1
    56       55           1
    56       56           0
    56       64           4
    56      120           1
    57       25           1
    57       41           3
    57       49           2
    57       57           4
    57       58           0
    57       59           2
    57       61           4
    57      121           4
    58       26           4
    58       42           4
    58       50           3
    58       57           1
    58       58           3
    58       60           1
    58       62           3
    58      122           1
    59       27           1
    59       43           2
    59       51           4
    59       57           0
    59       59           4
    59       60           1
    59       63           3
    59      123           4
    60       28           2
    60       44           0
    60       52           3
    60       58           0
    60       59           4
    60       60           1
    60       64           2
    60      124           0
    61       29           3
    61       45           2
    61       53           1
    61       57           1
    61       61           2
    61       62           0
    61       63           1
    61      125           3
    62       30           2
    62       46           3
    62       54           1
    62       58           1
    62       61           1
    62       62           4
    62       64           1
    62      126           2
    63       31           2
    63       47           4
    63       55           3
    63       59           4
    63       61           0
    63       63           2
    63       64           4
    63      127           0
    64       32           3
    64       48           0
    64       56           1
    64       60           2
    64       62           1
    64       63           0
    64       64           4
    64      128           1
    65        1           2
    65       65           4
    65       66           0
    65       67           3
    65       69           3
    65       73           2
    65       81           1
    65       97           4
    66        2           1
    66       65           0
    66       66           0
    66       68           3
    66       70           1
    66       74           2
    66       82           3
    66       98           3
    67        3           3
    67       65           0
    67       67           3
    67       68           3
    67       71           0
    67       75           0
    67       83           1
    67       99           3
    68        4           3
    68       66           3
    68       67           4
    68       68           2
    68       72           1
    68       76           4
    68       84           0
    68      100           1
    69        5           2
    69       65           3
    69       69           2
    69       70           3
    69       71           2
    69       77           4
    69       85           0
    69      101           0
    70        6           4
    70       66           3
    70       69           1
    70       70           3
    70       72           0
    70       78           3
    70       86           0
    70      102           1
    71        7           1
    71       67           4
    71       69           4
    71       71           2
    71       72           3
    71       79           1
    71       87           1
    71      103           0
    72        8           1
    72       68           3
    72       70           0
    72       71           0
    72       72           1
    72       80           1
    72       88           4
    72      104           2
    73        9           0
    73       65           2
    73       73           2
    73       74           0
    73       75           1
    73       77           3
    73       89           3
    73      105           3
    74       10           4
    74       66           4
    74       73           3
    74       74           3
    74       76           4
    74       78           3
    74       90           0
    74      106           4
    75       11           3
    75       67           1
    75       73           3
    75       75           4
    75       76           3
    75       79           4
    75       91           2
    75      107           0
    76       12           4
    76       68           2
    76       74           1
    76       75           2
    76       76           1
    76       80           0
    76       92           3
    76      108           3
    77       13           2
    77       69           1
    77       73           0
    77       77           1
    77       78           2
    77       79           3
    77       93           3
    77      109           0
    78       14           4
    78       70           2
    78       74           2
    78       77           3
    78       78           4
    78       80           1
    78       94           4
    78      110           3
    79       15           0
    79       71           4
    79       75           0
    79       77           1
    79       79           2
    79       80           4
    79       95           3
    79      111           0
    80       16           4
    80       72           4
    80       76           3
    80       78           0
    80       79           3
    80       80           2
    80       96           1
    80      112           0
    81       17           1
    81       65           1
    81       81           2
    81       82           4
    81       83           2
    81       85           2
    81       89           3
    81      113           4
    82       18           2
    82       66           2
    82       81           0
    82       82           2
    82       84           0
    82       86           1
    82       90           1
    82      114           0
    83       19           3
    83       67           2
    83       81           3
    83       83           0
    83       84           0
    83       87           3
    83       91           0
    83      115           0
    84       20           0
    84       68           3
    84       82           3
    84       83           3
    84       84           1
    84       88           4
    84       92           3
    84      116           1
    85       21           2
    85       69           4
    85       81           3
    85       85           0
    85       86           3
    85       87           3
    85       93           2
    85      117           1
    86       22           1
    86       70           4
    86       82           4
    86       85           1
    86       86           2
    86       88           2
    86       94           1
    86      118           3
    87       23           0
    87       71           1
    87       83           4
    87       85           4
    87       87           4
    87       88           3
    87       95           3
    87      119           4
    88       24           0
    88       72           1
    88       84           2
    88       86           4
    88       87           0
    88       88           3
    88       96           4
    88      120           4
    89       25           3
    89       73           1
    89       81           4
    89       89           1
    89       90           1
    89       91           2
    89       93           4
    89      121           2
    90       26           2
    90       74           1
    90       82           1
    90       89           3
    90       90           4
    90       92           2
    90       94           3
    90      122           1
    91       27           2
    91       75           4
    91       83           0
    91       89           1
    91       91           2
    91       92           2
    91       95           1
    91      123           3
    92       28           1
    92       76           3
    92       84           4
    92       90           2
    92       91           0
    92       92           0
    92       96           0
    92      124           3
    93       29           2
    93       77           4
    93       85           2
    93       89           2
    93       93           3
    93       94           3
    93       95           2
    93      125           1
    94       30           0
    94       78           2
    94       86           3
    94       90           1
    94       93           3
    94       94           0
    94       96           3
    94      126           4
    95       31           2
    95       79           0
    95       87           4
    95       91           4
    95       93           0
    95       95           0
    95       96           4
    95      127           3
    96       32           3
    96       80           2
    96       88           4
    96       92           0
    96       94           1
    96       95           4
    96       96           0
    96      128           3
    97       33           4
    97       65           4
    97       97           3
    97       98           4
    97       99           0
    97      101           1
    97      105           4
    97      113           2
    98       34           2
    98       66           0
    98       97           4
    98       98           3
    98      100           1
    98      102           2
    98      106           4
    98      114           1
    99       35           3
    99       67           4
    99       97           0
    99       99           2
    99      100           2
    99      103           0
    99      107           0
    99      115           0
   100       36           4
   100       68           2
   100       98           3
   100       99           3
   100      100           2
   100      104           3
   100      108           4
   100      116           4
   101       37           3
   101       69           2
   101       97           0
   101      101           0
   101      102           2
   101      103           3
   101      109           4
   101      117           2
   102       38           2
   102       70           0
   102       98           0
   102      101           2
   102      102           3
   102      104           2
   102      110           0
   102      118           3
   103       39           1
   103       71           2
   103       99           1
   103      101           4
   103      103           4
   103      104           4
   103      111           1
   103      119           3
   104       40           2
   104       72           2
   104      100           2
   104      102           4
   104      103           2
   104      104           1
   104      112           3
   104      120           3
   105       41           3
   105       73           1
   105       97           1
   105      105           0
   105      106           0
   105      107           4
   105      109           0
   105      121           3
   106       42           1
   106       74           4
   106       98           3
   106      105           3
   106      106           3
   106      108           1
   106      110           3
   106      122           3
   107       43           0
   107       75           4
   107       99           2
   107      105           3
   107      107           3
   107      108           1
   107      111           3
   107      123           4
   108       44           2
   108       76           1
   108      100           2
   108      106           1
   108      107           4
   108      108           2
   108      112           1
   108      124           1
   109       45           4
   109       77           1
   109      101           3
   109      105           2
   109      109           4
   109      110           3
   109      111           0
   109      125           2
   110       46           3
   110       78           3
   110      102           4
   110      106           4
   110      109           0
   110      110           0
   110      112           1
   110      126           0
   111       47           3
   111       79           1
   111      103           1
   111      107           4
   111      109           0
   111      111           1
   111      112           2
   111      127           3
   112       48           4
   112       80           1
   112      104           0
   112      108           0
   112      110           3
   112      111           2
   112      112           2
   112      128           1
   113       49           1
   113       81           0
   113       97           0
   113      113           0
   113      114           0
   113      115           0
   113      117           4
   113      121           2
   114       50           0
   114       82           4
   114       98           0
   114      113           0
   114      114           3
   114      116           3
   114      118           3
   114      122           1
   115       51           2
   115       83           4
   115       99           0
   115      113           3
   115      115           1
   115      116           2
   115      119           1
   115      123           4
   116       52           0
   116       84           4
   116      100           4
   116      114           3
   116      115           1
   116      116           4
   116      120           3
   116      124           1
   117       53           2
   117       85           0
   117      101           1
   117      113           4
   117      117           2
   117      118           4
   117      119           3
   117      125           2
   118       54           1
   118       86           4
   118      102           4
   118      114           0
   118      117           4
   118      118           4
   118      120           0
   118      126           1
   119       55           2
   119       87           1
   119      103           2
   119      115           3
   119      117           3
   119      119           0
   119      120           1
   119      127           2
   120       56           1
   120       88           3
   120      104           1
   120      116           2
   120      118           3
   120      119           2
   120      120           2
   120      128           1
   121       57           0
   121       89           3
   121      105           1
   121      113           4
   121      121           0
   121      122           3
   121      123           2
   121      125           1
   122       58           4
   122       90           3
   122      106           3
   122      114           0
   122      121           1
   122      122           4
   122      124           0
   122      126           2
   123       59           1
   123       91           2
   123      107           4
   123      115           0
   123      121           2
   123      123           3
   123      124           3
   123      127           4
   124       60           2
   124       92           1
   124      108           3
   124      116           1
   124      122           4
   124      123           0
   124      124           0
   124      128           4
   125       61           4
   125       93           0
   125      109           3
   125      117           4
   125      121           3
   125      125           2
   125      126           4
   125      127           4
   126       62           3
   126       94           0
   126      110           0
   126      118           2
   126      122           3
   126      125           4
   126      126           2
   126      128           2
   127       63           1
   127       95           4
   127      111           2
   127      119           1
   127      123           2
   127      125           3
   127      127           4
   127      128           2
   128       64           2
   128       96           4
   128      112           0
   128      120           1
   128      124           0
   128      126           0
   128      127           1
   128      128           2
